

































































































0 20 61 33 
64 37 21 71 
9 16 69 74 1 
18 38 55 65 23 
26 43 60 58 52 
3 47 25 14 
56 44 66 2 32 
22 59 8 62 72 
6 15 36 42 
27 75 7 46 50 
76 5 12 19 35 
54 51 57 70 
28 41 68 13 
40 11 29 67 
34 31 17 24 
30 73 49 63 48 
45 4 53 10 39 
